# 30728
param k := 6;
param n := 60;
param s := 1;
set E :=  (0,12) (0,13) (0,15) (1,8) (2,54) (3,23) (3,27) (4,19) (4,44) (5,18) (5,54) (6,30) (7,33) (7,46) (7,47) (8,43) (9,30) (9,50) (10,40) (11,16) (11,24) (11,28) (13,25) (13,27) (13,35) (13,52) (14,33) (16,29) (16,31) (17,18) (17,46) (18,37) (19,42) (20,37) (20,59) (21,27) (21,38) (22,48) (23,51) (26,38) (27,32) (27,48) (27,57) (27,58) (30,49) (30,55) (31,43) (31,47) (32,56) (33,44) (34,38) (36,49) (37,41) (38,53) (39,40) (40,53) (44,49) (45,51) (46,50) (48,59);